NAME : random1716955679
COMMENT: random generated with id 1716955679
TYPE : TSP
DIMENSION : 21
EDGE_WEIGHT_TYPE : EUC_2D
NODE_COORD_SECTION
1 2.861113 2.910872
2 5.922374 3.706670
3 19.021555 19.436829
4 0.089897 14.775101
5 6.886187 17.472511
6 4.442963 6.549841
7 9.760122 12.288971
8 17.077327 19.256839
9 17.086896 12.977978
10 8.116652 14.673329
11 16.293067 10.929618
12 19.809945 3.380520
13 17.860425 5.050948
14 14.498496 3.586809
15 7.030830 7.225397
16 3.225754 9.891944
17 10.136270 9.148128
18 13.598614 9.157825
19 8.584957 13.688511
20 3.932926 15.471144
21 11.161022 8.375889
EOF
